Instance name:    bar-n100-5.txt
Authors:          Gerhard Hiermann
Date:             2022-mm-dd
Reference:        XYZ
Solution: 0;6;874.000;60.00 s
Route 1 :  37 87 45 95 22 46 30 80 72 41 96 38 91 14 88 7 64 57
Route 2 :  3 40 53 13 63 47 90 97 16 42 92 23 66 32 82 17 73 67
Route 3 :  15 11 65 50 100 12 62 61 49 35 4 85 54 33 99 83
Route 4 :  31 48 98 25 26 81 76 19 75 69 1 2 52 43 93 51
Route 5 :  28 78 27 18 5 77 68 10 24 55 60 74 9 59 21 71
Route 6 :  34 36 44 86 84 94 29 6 56 20 79 8 70 58 39 89
